\* Source Pyomo model name=unknown *\

min 
OBJ:
+0.1 Pslack(1)
+0.1 Pslack(2)
+0.1 Pslack(3)
+0.1 Pslack(4)
+0.1 Pslack(5)
+0.1 Pslack(6)
+3.0 kappa(0_1)
+3.0 kappa(0_2)
+3.0 kappa(0_3)
+3.0 kappa(0_4)
+3.0 kappa(0_5)
+3.0 kappa(0_6)
+3.0 kappa(1_1)
+3.0 kappa(1_2)
+3.0 kappa(1_3)
+3.0 kappa(1_4)
+3.0 kappa(1_5)
+3.0 kappa(1_6)

s.t.

c_e_u_one(1)_:
+1 u(1_1)
+1 u(1_2)
= 1

c_e_u_one(2)_:
+1 u(2_1)
+1 u(2_2)
= 1

c_e_u_one(3)_:
+1 u(3_1)
+1 u(3_2)
= 1

c_e_u_one(4)_:
+1 u(4_1)
+1 u(4_2)
= 1

c_e_u_one(5)_:
+1 u(5_1)
+1 u(5_2)
= 1

c_e_u_one(6)_:
+1 u(6_1)
+1 u(6_2)
= 1

c_e_subP(1)_:
+1 Pslack(1)
-1 P(0_1_1)
= 0

c_e_subP(2)_:
+1 Pslack(2)
-1 P(0_1_2)
= 0

c_e_subP(3)_:
+1 Pslack(3)
-1 P(0_1_3)
= 0

c_e_subP(4)_:
+1 Pslack(4)
-1 P(0_1_4)
= 0

c_e_subP(5)_:
+1 Pslack(5)
-1 P(0_1_5)
= 0

c_e_subP(6)_:
+1 Pslack(6)
-1 P(0_1_6)
= 0

c_e_subQ(1)_:
+1 Qslack(1)
-1 Q(0_1_1)
= 0

c_e_subQ(2)_:
+1 Qslack(2)
-1 Q(0_1_2)
= 0

c_e_subQ(3)_:
+1 Qslack(3)
-1 Q(0_1_3)
= 0

c_e_subQ(4)_:
+1 Qslack(4)
-1 Q(0_1_4)
= 0

c_e_subQ(5)_:
+1 Qslack(5)
-1 Q(0_1_5)
= 0

c_e_subQ(6)_:
+1 Qslack(6)
-1 Q(0_1_6)
= 0

c_e_flowP(1_1)_:
+1 kappa(1_1)
-1 P(0_1_1)
-1 X(1_1)
= 20.0

c_e_flowP(1_2)_:
+1 kappa(1_2)
-1 P(0_1_2)
-1 X(1_2)
-1 X(2_2)
= 20.0

c_e_flowP(1_3)_:
+1 kappa(1_3)
-1 P(0_1_3)
-1 X(1_3)
-1 X(2_3)
-1 X(3_3)
= 20.0

c_e_flowP(1_4)_:
+1 kappa(1_4)
-1 P(0_1_4)
-1 X(1_4)
-1 X(2_4)
-1 X(3_4)
-1 X(4_4)
= 20.0

c_e_flowP(1_5)_:
+1 kappa(1_5)
-1 P(0_1_5)
-1 X(1_5)
-1 X(2_5)
-1 X(3_5)
-1 X(4_5)
-1 X(5_5)
= 20.0

c_e_flowP(1_6)_:
+1 kappa(1_6)
-1 P(0_1_6)
-1 X(1_6)
-1 X(2_6)
-1 X(3_6)
-1 X(4_6)
-1 X(5_6)
-1 X(6_6)
= 20.0

c_e_flowQ(1_1)_:
-1 Q(0_1_1)
= 0.0

c_e_flowQ(1_2)_:
-1 Q(0_1_2)
= 0.0

c_e_flowQ(1_3)_:
-1 Q(0_1_3)
= 0.0

c_e_flowQ(1_4)_:
-1 Q(0_1_4)
= 0.0

c_e_flowQ(1_5)_:
-1 Q(0_1_5)
= 0.0

c_e_flowQ(1_6)_:
-1 Q(0_1_6)
= 0.0

c_e_vdrop(0_1_1)_:
+0.002 P(0_1_1)
+0.006 Q(0_1_1)
-1 v(0_1)
+1 v(1_1)
= 0

c_e_vdrop(0_1_2)_:
+0.002 P(0_1_2)
+0.006 Q(0_1_2)
-1 v(0_2)
+1 v(1_2)
= 0

c_e_vdrop(0_1_3)_:
+0.002 P(0_1_3)
+0.006 Q(0_1_3)
-1 v(0_3)
+1 v(1_3)
= 0

c_e_vdrop(0_1_4)_:
+0.002 P(0_1_4)
+0.006 Q(0_1_4)
-1 v(0_4)
+1 v(1_4)
= 0

c_e_vdrop(0_1_5)_:
+0.002 P(0_1_5)
+0.006 Q(0_1_5)
-1 v(0_5)
+1 v(1_5)
= 0

c_e_vdrop(0_1_6)_:
+0.002 P(0_1_6)
+0.006 Q(0_1_6)
-1 v(0_6)
+1 v(1_6)
= 0

c_e_v_slack(1)_:
+1 v(0_1)
= 1.05

c_e_v_slack(2)_:
+1 v(0_2)
= 1.05

c_e_v_slack(3)_:
+1 v(0_3)
= 1.05

c_e_v_slack(4)_:
+1 v(0_4)
= 1.05

c_e_v_slack(5)_:
+1 v(0_5)
= 1.05

c_e_v_slack(6)_:
+1 v(0_6)
= 1.05

c_l_v_lo(0_1)_:
+1 v(0_1)
>= 0.95

c_l_v_lo(0_2)_:
+1 v(0_2)
>= 0.95

c_l_v_lo(0_3)_:
+1 v(0_3)
>= 0.95

c_l_v_lo(0_4)_:
+1 v(0_4)
>= 0.95

c_l_v_lo(0_5)_:
+1 v(0_5)
>= 0.95

c_l_v_lo(0_6)_:
+1 v(0_6)
>= 0.95

c_l_v_lo(1_1)_:
+1 v(1_1)
>= 0.95

c_l_v_lo(1_2)_:
+1 v(1_2)
>= 0.95

c_l_v_lo(1_3)_:
+1 v(1_3)
>= 0.95

c_l_v_lo(1_4)_:
+1 v(1_4)
>= 0.95

c_l_v_lo(1_5)_:
+1 v(1_5)
>= 0.95

c_l_v_lo(1_6)_:
+1 v(1_6)
>= 0.95

c_u_v_hi(0_1)_:
+1 v(0_1)
<= 1.05

c_u_v_hi(0_2)_:
+1 v(0_2)
<= 1.05

c_u_v_hi(0_3)_:
+1 v(0_3)
<= 1.05

c_u_v_hi(0_4)_:
+1 v(0_4)
<= 1.05

c_u_v_hi(0_5)_:
+1 v(0_5)
<= 1.05

c_u_v_hi(0_6)_:
+1 v(0_6)
<= 1.05

c_u_v_hi(1_1)_:
+1 v(1_1)
<= 1.05

c_u_v_hi(1_2)_:
+1 v(1_2)
<= 1.05

c_u_v_hi(1_3)_:
+1 v(1_3)
<= 1.05

c_u_v_hi(1_4)_:
+1 v(1_4)
<= 1.05

c_u_v_hi(1_5)_:
+1 v(1_5)
<= 1.05

c_u_v_hi(1_6)_:
+1 v(1_6)
<= 1.05

c_l_P_box_lo(0_1_1)_:
+1 P(0_1_1)
>= -1000.0

c_l_P_box_lo(0_1_2)_:
+1 P(0_1_2)
>= -1000.0

c_l_P_box_lo(0_1_3)_:
+1 P(0_1_3)
>= -1000.0

c_l_P_box_lo(0_1_4)_:
+1 P(0_1_4)
>= -1000.0

c_l_P_box_lo(0_1_5)_:
+1 P(0_1_5)
>= -1000.0

c_l_P_box_lo(0_1_6)_:
+1 P(0_1_6)
>= -1000.0

c_u_P_box_hi(0_1_1)_:
+1 P(0_1_1)
<= 1000.0

c_u_P_box_hi(0_1_2)_:
+1 P(0_1_2)
<= 1000.0

c_u_P_box_hi(0_1_3)_:
+1 P(0_1_3)
<= 1000.0

c_u_P_box_hi(0_1_4)_:
+1 P(0_1_4)
<= 1000.0

c_u_P_box_hi(0_1_5)_:
+1 P(0_1_5)
<= 1000.0

c_u_P_box_hi(0_1_6)_:
+1 P(0_1_6)
<= 1000.0

c_l_Q_box_lo(0_1_1)_:
+1 Q(0_1_1)
>= -1000.0

c_l_Q_box_lo(0_1_2)_:
+1 Q(0_1_2)
>= -1000.0

c_l_Q_box_lo(0_1_3)_:
+1 Q(0_1_3)
>= -1000.0

c_l_Q_box_lo(0_1_4)_:
+1 Q(0_1_4)
>= -1000.0

c_l_Q_box_lo(0_1_5)_:
+1 Q(0_1_5)
>= -1000.0

c_l_Q_box_lo(0_1_6)_:
+1 Q(0_1_6)
>= -1000.0

c_u_Q_box_hi(0_1_1)_:
+1 Q(0_1_1)
<= 1000.0

c_u_Q_box_hi(0_1_2)_:
+1 Q(0_1_2)
<= 1000.0

c_u_Q_box_hi(0_1_3)_:
+1 Q(0_1_3)
<= 1000.0

c_u_Q_box_hi(0_1_4)_:
+1 Q(0_1_4)
<= 1000.0

c_u_Q_box_hi(0_1_5)_:
+1 Q(0_1_5)
<= 1000.0

c_u_Q_box_hi(0_1_6)_:
+1 Q(0_1_6)
<= 1000.0

c_u_ens_bound(0_1)_:
+1 kappa(0_1)
<= 0.0

c_u_ens_bound(0_2)_:
+1 kappa(0_2)
<= 0.0

c_u_ens_bound(0_3)_:
+1 kappa(0_3)
<= 0.0

c_u_ens_bound(0_4)_:
+1 kappa(0_4)
<= 0.0

c_u_ens_bound(0_5)_:
+1 kappa(0_5)
<= 0.0

c_u_ens_bound(0_6)_:
+1 kappa(0_6)
<= 0.0

c_u_ens_bound(1_1)_:
+1 kappa(1_1)
<= 20.0

c_u_ens_bound(1_2)_:
+1 kappa(1_2)
<= 20.0

c_u_ens_bound(1_3)_:
+1 kappa(1_3)
<= 20.0

c_u_ens_bound(1_4)_:
+1 kappa(1_4)
<= 20.0

c_u_ens_bound(1_5)_:
+1 kappa(1_5)
<= 20.0

c_u_ens_bound(1_6)_:
+1 kappa(1_6)
<= 20.0

c_e_origin_cons(1)_:
+1 X(1_1)
+1 X(1_2)
+1 X(1_3)
+1 X(1_4)
+1 X(1_5)
+1 X(1_6)
= 0.0

c_e_origin_cons(2)_:
+1 X(2_2)
+1 X(2_3)
+1 X(2_4)
+1 X(2_5)
+1 X(2_6)
= 60.0

c_e_origin_cons(3)_:
+1 X(3_3)
+1 X(3_4)
+1 X(3_5)
+1 X(3_6)
= 60.0

c_e_origin_cons(4)_:
+1 X(4_4)
+1 X(4_5)
+1 X(4_6)
= 60.0

c_e_origin_cons(5)_:
+1 X(5_5)
+1 X(5_6)
= 0.0

c_e_origin_cons(6)_:
+1 X(6_6)
= 0.0

c_u_delivery_cap(1)_:
+1 X(1_1)
<= 80.0

c_u_delivery_cap(2)_:
+1 X(1_2)
+1 X(2_2)
<= 80.0

c_u_delivery_cap(3)_:
+1 X(1_3)
+1 X(2_3)
+1 X(3_3)
<= 80.0

c_u_delivery_cap(4)_:
+1 X(1_4)
+1 X(2_4)
+1 X(3_4)
+1 X(4_4)
<= 80.0

c_u_delivery_cap(5)_:
+1 X(1_5)
+1 X(2_5)
+1 X(3_5)
+1 X(4_5)
+1 X(5_5)
<= 80.0

c_u_delivery_cap(6)_:
+1 X(1_6)
+1 X(2_6)
+1 X(3_6)
+1 X(4_6)
+1 X(5_6)
+1 X(6_6)
<= 80.0

c_u_flex_cap(1_0)_:
+1 X(1_1)
+1 X(1_2)
+1 X(1_3)
+1 X(1_4)
+1 X(1_5)
+1 X(1_6)
<= 0.0

c_u_flex_cap(1_1)_:
+1 X(1_2)
+1 X(1_3)
+1 X(1_4)
+1 X(1_5)
+1 X(1_6)
<= 0.0

c_u_flex_cap(1_2)_:
+1 X(1_3)
+1 X(1_4)
+1 X(1_5)
+1 X(1_6)
<= 0.0

c_u_flex_cap(1_3)_:
+1 X(1_4)
+1 X(1_5)
+1 X(1_6)
<= 0.0

c_u_flex_cap(1_4)_:
+1 X(1_5)
+1 X(1_6)
<= 0.0

c_u_flex_cap(2_0)_:
+1 X(2_2)
+1 X(2_3)
+1 X(2_4)
+1 X(2_5)
+1 X(2_6)
<= 60.0

c_u_flex_cap(2_1)_:
+1 X(2_3)
+1 X(2_4)
+1 X(2_5)
+1 X(2_6)
<= 60.0

c_u_flex_cap(2_2)_:
+1 X(2_4)
+1 X(2_5)
+1 X(2_6)
<= 60.0

c_u_flex_cap(2_3)_:
+1 X(2_5)
+1 X(2_6)
<= 60.0

c_u_flex_cap(2_4)_:
+1 X(2_6)
<= 60.0

c_u_flex_cap(3_0)_:
+1 X(3_3)
+1 X(3_4)
+1 X(3_5)
+1 X(3_6)
<= 60.0

c_u_flex_cap(3_1)_:
+1 X(3_4)
+1 X(3_5)
+1 X(3_6)
<= 60.0

c_u_flex_cap(3_2)_:
+1 X(3_5)
+1 X(3_6)
<= 60.0

c_u_flex_cap(3_3)_:
+1 X(3_6)
<= 60.0

c_u_flex_cap(3_4)_:
+0 ONE_VAR_CONSTANT
<= 0

c_u_flex_cap(4_0)_:
+1 X(4_4)
+1 X(4_5)
+1 X(4_6)
<= 60.0

c_u_flex_cap(4_1)_:
+1 X(4_5)
+1 X(4_6)
<= 60.0

c_u_flex_cap(4_2)_:
+1 X(4_6)
<= 60.0

c_u_flex_cap(4_3)_:
+0 ONE_VAR_CONSTANT
<= 0

c_u_flex_cap(4_4)_:
+0 ONE_VAR_CONSTANT
<= 0

c_u_flex_cap(5_0)_:
+1 X(5_5)
+1 X(5_6)
<= 0.0

c_u_flex_cap(5_1)_:
+1 X(5_6)
<= 0.0

c_u_flex_cap(5_2)_:
+0 ONE_VAR_CONSTANT
<= 0

c_u_flex_cap(5_3)_:
+0 ONE_VAR_CONSTANT
<= 0

c_u_flex_cap(5_4)_:
+0 ONE_VAR_CONSTANT
<= 0

c_u_flex_cap(6_0)_:
+1 X(6_6)
<= 0.0

c_u_flex_cap(6_1)_:
+0 ONE_VAR_CONSTANT
<= 0

c_u_flex_cap(6_2)_:
+0 ONE_VAR_CONSTANT
<= 0

c_u_flex_cap(6_3)_:
+0 ONE_VAR_CONSTANT
<= 0

c_u_flex_cap(6_4)_:
+0 ONE_VAR_CONSTANT
<= 0

c_u_dual_feas(1_1)_:
-0.05 u(1_2)
+1 y1(1)
+1 y2(1)
+1 y3(1_0)
<= 0.1

c_u_dual_feas(1_2)_:
-0.05 u(2_2)
+1 y1(1)
+1 y2(2)
+1 y3(1_0)
+1 y3(1_1)
<= 0.1

c_u_dual_feas(1_3)_:
-0.05 u(3_2)
+1 y1(1)
+1 y2(3)
+1 y3(1_0)
+1 y3(1_1)
+1 y3(1_2)
<= 0.1

c_u_dual_feas(1_4)_:
-0.05 u(4_2)
+1 y1(1)
+1 y2(4)
+1 y3(1_0)
+1 y3(1_1)
+1 y3(1_2)
+1 y3(1_3)
<= 0.1

c_u_dual_feas(1_5)_:
-0.05 u(5_2)
+1 y1(1)
+1 y2(5)
+1 y3(1_0)
+1 y3(1_1)
+1 y3(1_2)
+1 y3(1_3)
+1 y3(1_4)
<= 0.1

c_u_dual_feas(1_6)_:
-0.05 u(6_2)
+1 y1(1)
+1 y2(6)
+1 y3(1_0)
+1 y3(1_1)
+1 y3(1_2)
+1 y3(1_3)
+1 y3(1_4)
<= 0.1

c_u_dual_feas(2_2)_:
-0.05 u(2_2)
+1 y1(2)
+1 y2(2)
+1 y3(2_0)
<= 0.1

c_u_dual_feas(2_3)_:
-0.05 u(3_2)
+1 y1(2)
+1 y2(3)
+1 y3(2_0)
+1 y3(2_1)
<= 0.1

c_u_dual_feas(2_4)_:
-0.05 u(4_2)
+1 y1(2)
+1 y2(4)
+1 y3(2_0)
+1 y3(2_1)
+1 y3(2_2)
<= 0.1

c_u_dual_feas(2_5)_:
-0.05 u(5_2)
+1 y1(2)
+1 y2(5)
+1 y3(2_0)
+1 y3(2_1)
+1 y3(2_2)
+1 y3(2_3)
<= 0.1

c_u_dual_feas(2_6)_:
-0.05 u(6_2)
+1 y1(2)
+1 y2(6)
+1 y3(2_0)
+1 y3(2_1)
+1 y3(2_2)
+1 y3(2_3)
+1 y3(2_4)
<= 0.1

c_u_dual_feas(3_3)_:
-0.05 u(3_2)
+1 y1(3)
+1 y2(3)
+1 y3(3_0)
<= 0.1

c_u_dual_feas(3_4)_:
-0.05 u(4_2)
+1 y1(3)
+1 y2(4)
+1 y3(3_0)
+1 y3(3_1)
<= 0.1

c_u_dual_feas(3_5)_:
-0.05 u(5_2)
+1 y1(3)
+1 y2(5)
+1 y3(3_0)
+1 y3(3_1)
+1 y3(3_2)
<= 0.1

c_u_dual_feas(3_6)_:
-0.05 u(6_2)
+1 y1(3)
+1 y2(6)
+1 y3(3_0)
+1 y3(3_1)
+1 y3(3_2)
+1 y3(3_3)
<= 0.1

c_u_dual_feas(4_4)_:
-0.05 u(4_2)
+1 y1(4)
+1 y2(4)
+1 y3(4_0)
<= 0.1

c_u_dual_feas(4_5)_:
-0.05 u(5_2)
+1 y1(4)
+1 y2(5)
+1 y3(4_0)
+1 y3(4_1)
<= 0.1

c_u_dual_feas(4_6)_:
-0.05 u(6_2)
+1 y1(4)
+1 y2(6)
+1 y3(4_0)
+1 y3(4_1)
+1 y3(4_2)
<= 0.1

c_u_dual_feas(5_5)_:
-0.05 u(5_2)
+1 y1(5)
+1 y2(5)
+1 y3(5_0)
<= 0.1

c_u_dual_feas(5_6)_:
-0.05 u(6_2)
+1 y1(5)
+1 y2(6)
+1 y3(5_0)
+1 y3(5_1)
<= 0.1

c_u_dual_feas(6_6)_:
-0.05 u(6_2)
+1 y1(6)
+1 y2(6)
+1 y3(6_0)
<= 0.1

c_e_strong_duality_:
+0.1 X(1_1)
+0.1 X(1_2)
+0.1 X(1_3)
+0.1 X(1_4)
+0.1 X(1_5)
+0.1 X(1_6)
+0.1 X(2_2)
+0.1 X(2_3)
+0.1 X(2_4)
+0.1 X(2_5)
+0.1 X(2_6)
+0.1 X(3_3)
+0.1 X(3_4)
+0.1 X(3_5)
+0.1 X(3_6)
+0.1 X(4_4)
+0.1 X(4_5)
+0.1 X(4_6)
+0.1 X(5_5)
+0.1 X(5_6)
+0.1 X(6_6)
+60.0 y1(2)
+60.0 y1(3)
+60.0 y1(4)
+80.0 y2(1)
+80.0 y2(2)
+80.0 y2(3)
+80.0 y2(4)
+80.0 y2(5)
+80.0 y2(6)
+60.0 y3(2_0)
+60.0 y3(2_1)
+60.0 y3(2_2)
+60.0 y3(2_3)
+60.0 y3(2_4)
+60.0 y3(3_0)
+60.0 y3(3_1)
+60.0 y3(3_2)
+60.0 y3(3_3)
+60.0 y3(4_0)
+60.0 y3(4_1)
+60.0 y3(4_2)
+ [
+0.05 u(1_2) * X(1_1)
+0.05 u(2_2) * X(1_2)
+0.05 u(2_2) * X(2_2)
+0.05 u(3_2) * X(1_3)
+0.05 u(3_2) * X(2_3)
+0.05 u(3_2) * X(3_3)
+0.05 u(4_2) * X(1_4)
+0.05 u(4_2) * X(2_4)
+0.05 u(4_2) * X(3_4)
+0.05 u(4_2) * X(4_4)
+0.05 u(5_2) * X(1_5)
+0.05 u(5_2) * X(2_5)
+0.05 u(5_2) * X(3_5)
+0.05 u(5_2) * X(4_5)
+0.05 u(5_2) * X(5_5)
+0.05 u(6_2) * X(1_6)
+0.05 u(6_2) * X(2_6)
+0.05 u(6_2) * X(3_6)
+0.05 u(6_2) * X(4_6)
+0.05 u(6_2) * X(5_6)
+0.05 u(6_2) * X(6_6)
]
= 0

bounds
   1 <= ONE_VAR_CONSTANT <= 1
   -inf <= Pslack(1) <= +inf
   -inf <= Pslack(2) <= +inf
   -inf <= Pslack(3) <= +inf
   -inf <= Pslack(4) <= +inf
   -inf <= Pslack(5) <= +inf
   -inf <= Pslack(6) <= +inf
   0 <= kappa(0_1) <= +inf
   0 <= kappa(0_2) <= +inf
   0 <= kappa(0_3) <= +inf
   0 <= kappa(0_4) <= +inf
   0 <= kappa(0_5) <= +inf
   0 <= kappa(0_6) <= +inf
   0 <= kappa(1_1) <= +inf
   0 <= kappa(1_2) <= +inf
   0 <= kappa(1_3) <= +inf
   0 <= kappa(1_4) <= +inf
   0 <= kappa(1_5) <= +inf
   0 <= kappa(1_6) <= +inf
   0 <= u(1_1) <= 1
   0 <= u(1_2) <= 1
   0 <= u(2_1) <= 1
   0 <= u(2_2) <= 1
   0 <= u(3_1) <= 1
   0 <= u(3_2) <= 1
   0 <= u(4_1) <= 1
   0 <= u(4_2) <= 1
   0 <= u(5_1) <= 1
   0 <= u(5_2) <= 1
   0 <= u(6_1) <= 1
   0 <= u(6_2) <= 1
   -inf <= P(0_1_1) <= +inf
   -inf <= P(0_1_2) <= +inf
   -inf <= P(0_1_3) <= +inf
   -inf <= P(0_1_4) <= +inf
   -inf <= P(0_1_5) <= +inf
   -inf <= P(0_1_6) <= +inf
   -inf <= Qslack(1) <= +inf
   -inf <= Qslack(2) <= +inf
   -inf <= Qslack(3) <= +inf
   -inf <= Qslack(4) <= +inf
   -inf <= Qslack(5) <= +inf
   -inf <= Qslack(6) <= +inf
   -inf <= Q(0_1_1) <= +inf
   -inf <= Q(0_1_2) <= +inf
   -inf <= Q(0_1_3) <= +inf
   -inf <= Q(0_1_4) <= +inf
   -inf <= Q(0_1_5) <= +inf
   -inf <= Q(0_1_6) <= +inf
   0 <= X(1_1) <= +inf
   0 <= X(1_2) <= +inf
   0 <= X(1_3) <= +inf
   0 <= X(1_4) <= +inf
   0 <= X(1_5) <= +inf
   0 <= X(1_6) <= +inf
   0 <= X(2_2) <= +inf
   0 <= X(2_3) <= +inf
   0 <= X(2_4) <= +inf
   0 <= X(2_5) <= +inf
   0 <= X(2_6) <= +inf
   0 <= X(3_3) <= +inf
   0 <= X(3_4) <= +inf
   0 <= X(3_5) <= +inf
   0 <= X(3_6) <= +inf
   0 <= X(4_4) <= +inf
   0 <= X(4_5) <= +inf
   0 <= X(4_6) <= +inf
   0 <= X(5_5) <= +inf
   0 <= X(5_6) <= +inf
   0 <= X(6_6) <= +inf
   -inf <= v(0_1) <= +inf
   -inf <= v(0_2) <= +inf
   -inf <= v(0_3) <= +inf
   -inf <= v(0_4) <= +inf
   -inf <= v(0_5) <= +inf
   -inf <= v(0_6) <= +inf
   -inf <= v(1_1) <= +inf
   -inf <= v(1_2) <= +inf
   -inf <= v(1_3) <= +inf
   -inf <= v(1_4) <= +inf
   -inf <= v(1_5) <= +inf
   -inf <= v(1_6) <= +inf
   -inf <= y1(1) <= +inf
   -inf <= y1(2) <= +inf
   -inf <= y1(3) <= +inf
   -inf <= y1(4) <= +inf
   -inf <= y1(5) <= +inf
   -inf <= y1(6) <= +inf
   0 <= y2(1) <= +inf
   0 <= y2(2) <= +inf
   0 <= y2(3) <= +inf
   0 <= y2(4) <= +inf
   0 <= y2(5) <= +inf
   0 <= y2(6) <= +inf
   0 <= y3(1_0) <= +inf
   0 <= y3(1_1) <= +inf
   0 <= y3(1_2) <= +inf
   0 <= y3(1_3) <= +inf
   0 <= y3(1_4) <= +inf
   0 <= y3(2_0) <= +inf
   0 <= y3(2_1) <= +inf
   0 <= y3(2_2) <= +inf
   0 <= y3(2_3) <= +inf
   0 <= y3(2_4) <= +inf
   0 <= y3(3_0) <= +inf
   0 <= y3(3_1) <= +inf
   0 <= y3(3_2) <= +inf
   0 <= y3(3_3) <= +inf
   0 <= y3(4_0) <= +inf
   0 <= y3(4_1) <= +inf
   0 <= y3(4_2) <= +inf
   0 <= y3(5_0) <= +inf
   0 <= y3(5_1) <= +inf
   0 <= y3(6_0) <= +inf
binary
  u(1_1)
  u(1_2)
  u(2_1)
  u(2_2)
  u(3_1)
  u(3_2)
  u(4_1)
  u(4_2)
  u(5_1)
  u(5_2)
  u(6_1)
  u(6_2)
end
